# Inputfile for NEB calculation
# Default: bandpointnum=10 cyclenum=32 theory1=pm3 theory2=none
#          algorythm=QuickMinVerlet option=(blank)
#          * option can be input as continuous phrases 
#          connected with  "___". 
#          e.g. option scrf=(pcm,solvent=ch2cl2)___int=grid=ultrafine
bandpointnum 10
cyclenum 128
theory1 pm7
#theory2 m062x/6-31G*
algorythm QuickMinVerlet

input terminal1
0 1
 C                 -0.97554763    0.08054462    0.00183430
 H                 -0.56698390   -0.90782916    0.03489377
 H                 -0.61893068    0.58485676   -0.87188969
 H                 -2.04358770    0.02411122   -0.02987818
 C                 -0.53965637    0.85845279    1.25740497
 H                 -0.94662422    1.84745282    1.22340346
 H                  0.52844002    0.91321559    1.29013323
 C                 -1.05529602    0.13412252    2.51480761
 H                 -0.75442772   -0.89223773    2.48377699
 H                 -2.12324938    0.19192062    2.54697930
 C                 -0.46690658    0.80379792    3.77056743
 H                 -0.76770771    1.83017918    3.80155434
 H                 -0.82524018    0.30058057    4.64422030
 H                  0.60104408    0.74592774    3.73843573
end

input terminal2
0 1
 C                  0.39898509   -0.07805847    0.47414327
 H                  1.22871875   -0.35014179    1.09253854
 H                  0.75572827    0.42452886   -0.40052253
 H                 -0.13531848   -0.95925552    0.18619976
 C                 -0.53965637    0.85845279    1.25740497
 H                 -1.36839134    1.13208518    0.63835436
 H                 -0.00482493    1.73878148    1.54701977
 C                 -1.05529602    0.13412252    2.51480761
 H                 -1.70930715   -0.66162047    2.22504472
 H                 -1.58812854    0.82683770    3.13216909
 C                  0.13723202   -0.44192436    3.30071273
 H                  0.79128486    0.35381024    3.59040453
 H                 -0.22103137   -0.94512266    4.17440536
 H                  0.67001692   -1.13470090    2.68337900
end

input transition1
0 1
 C                 -0.22635898   -0.17655928    0.16095854
 H                  0.52355469   -0.85356808    0.51336253
 H                  0.13007682    0.32685691   -0.71335585
 H                 -1.11502751   -0.72209873   -0.07894759
 C                 -0.53965637    0.85845279    1.25740497
 H                 -1.28817484    1.53663510    0.90429189
 H                  0.34945071    1.40267039    1.49868452
 C                 -1.05529602    0.13412252    2.51480761
 H                 -1.27518577   -0.88505969    2.27435780
 H                 -1.94309755    0.61728822    2.86589072
 C                  0.02331176    0.18125562    3.61298051
 H                  0.24326000    1.20043907    3.85337164
 H                 -0.33498881   -0.32194202    4.48665827
 H                  0.91108612   -0.30198190    3.26192751
end


